WARNING: for repeatability, setting FPU to use double precision
============================[ Problem Statistics ]=============================
|                                                                             |
|  Number of variables:         33791                                         |
|  Number of clauses:          790492                                         |
|  Parse time:                   0.18 s                                       |
|  Eliminated clauses:           0.07 Mb                                      |
|  Simplification time:          0.32 s                                       |
|                                                                             |
============================[ Search Statistics ]==============================
| Conflicts |          ORIGINAL         |          LEARNT          | Progress |
|           |    Vars  Clauses Literals |    Limit  Clauses Lit/Cl |          |
===============================================================================
|       100 |    4669    48326   158582 |    17719      100     37 | 69.427 % |
|       250 |    4669    48326   158582 |    19491      250     45 | 69.427 % |
|       475 |    4669    48326   158582 |    21440      475     47 | 69.427 % |
|       812 |    4669    48326   158582 |    23584      812     48 | 69.427 % |
|      1318 |    4669    48326   158582 |    25943     1318     48 | 69.427 % |
|      2077 |    4669    48326   158582 |    28537     2077     51 | 69.427 % |
|      3216 |    4669    48326   158582 |    31391     3216     92 | 69.427 % |
|      4924 |    4669    48326   158582 |    34530     4924     80 | 69.427 % |
|      7486 |    4669    48326   158582 |    37983     7486     88 | 69.427 % |
|     11330 |    4669    48326   158582 |    41781    11330     94 | 69.427 % |
|     17096 |    4669    48326   158582 |    45959    17096     86 | 69.427 % |
|     25745 |    4669    48326   158582 |    50555    25745     85 | 69.427 % |
===============================================================================
restarts              : 126
conflicts             : 37768          (28808 /sec)
decisions             : 242487         (0.00 % random) (184959 /sec)
propagations          : 3160010        (2410323 /sec)
conflict literals     : 3608985        (6.16 % deleted)
Memory used           : 79.00 MB
CPU time              : 1.31103 s

SATISFIABLE
